NAME          ClpDefau
ROWS
 N  OBJROW
 L  R_288_0
 L  R_288_1
 L  R_288_2
 L  R_288_3
 L  R_288_4
 L  R_288_5
 L  R_288_6
 L  R_288_7
 L  R_288_8
 L  R_288_9
 L  R_288_10
 L  R_288_11
 L  R_288_12
 L  R_288_13
 L  R_288_14
 L  R_288_15
 L  R_288_16
 L  R_288_17
 L  R_288_18
 L  R_288_19
 L  R_288_20
 L  R_288_21
 L  R_288_22
 L  R_288_23
 L  R_288_24
 L  R_288_25
 L  R_288_26
 L  R_288_27
 L  R_288_28
 L  R_288_29
 L  R_288_30
 L  R_288_31
COLUMNS
    x_0       OBJROW     -1.           R_288_0   1.          
    x_0       R_288_1   3.             R_288_2   9.          
    x_0       R_288_3   9.             R_288_4   3.          
    x_0       R_288_6   7.             R_288_7   6.          
    x_0       R_288_8   6.             R_288_9   8.          
    x_0       R_288_10  7.             R_288_11  8.          
    x_0       R_288_12  4.             R_288_13  8.          
    x_0       R_288_14  6.             R_288_15  8.          
    x_0       R_288_17  10.            R_288_18  9.          
    x_0       R_288_19  8.             R_288_20  6.          
    x_0       R_288_24  8.             R_288_25  9.          
    x_0       R_288_26  9.             R_288_27  10.         
    x_0       R_288_28  4.             R_288_29  6.          
    x_0       R_288_31  2.          
    x_1       OBJROW     -2.           R_288_0   6.          
    x_1       R_288_1   4.             R_288_3   10.         
    x_1       R_288_4   5.             R_288_5   2.          
    x_1       R_288_6   3.             R_288_8   4.          
    x_1       R_288_10  1.             R_288_11  6.          
    x_1       R_288_12  1.             R_288_13  2.          
    x_1       R_288_14  1.             R_288_15  3.          
    x_1       R_288_17  3.             R_288_18  1.          
    x_1       R_288_19  1.             R_288_20  4.          
    x_1       R_288_21  1.             R_288_22  10.         
    x_1       R_288_23  2.             R_288_24  8.          
    x_1       R_288_25  8.             R_288_26  10.         
    x_1       R_288_27  5.             R_288_28  10.         
    x_1       R_288_29  8.             R_288_31  6.          
    x_2       OBJROW     -2.           R_288_1   3.          
    x_2       R_288_2   7.             R_288_3   6.          
    x_2       R_288_4   6.             R_288_5   10.         
    x_2       R_288_7   9.             R_288_9   5.          
    x_2       R_288_10  3.             R_288_11  8.          
    x_2       R_288_12  9.             R_288_14  1.          
    x_2       R_288_16  8.             R_288_17  2.          
    x_2       R_288_18  10.            R_288_19  10.         
    x_2       R_288_20  5.             R_288_21  5.          
    x_2       R_288_22  1.             R_288_23  7.          
    x_2       R_288_24  2.             R_288_25  2.          
    x_2       R_288_26  2.             R_288_27  4.          
    x_2       R_288_28  1.             R_288_29  8.          
    x_2       R_288_30  9.             R_288_31  4.          
    x_3       OBJROW     -6.           R_288_0   4.          
    x_3       R_288_1   7.             R_288_2   1.          
    x_3       R_288_3   1.             R_288_6   2.          
    x_3       R_288_7   8.             R_288_8   9.          
    x_3       R_288_10  6.             R_288_11  6.          
    x_3       R_288_12  7.             R_288_13  5.          
    x_3       R_288_14  1.             R_288_16  8.          
    x_3       R_288_17  10.            R_288_18  1.          
    x_3       R_288_19  6.             R_288_20  2.          
    x_3       R_288_21  8.             R_288_22  10.         
    x_3       R_288_23  8.             R_288_24  6.          
    x_3       R_288_25  2.             R_288_26  2.          
    x_3       R_288_27  6.             R_288_28  4.          
    x_3       R_288_29  1.             R_288_30  8.          
    x_3       R_288_31  8.          
    x_4       OBJROW     -3.           R_288_0   8.          
    x_4       R_288_1   6.             R_288_2   9.          
    x_4       R_288_4   7.             R_288_7   4.          
    x_4       R_288_8   10.            R_288_9   7.          
    x_4       R_288_10  2.             R_288_11  10.         
    x_4       R_288_12  6.             R_288_13  9.          
    x_4       R_288_14  7.             R_288_16  1.          
    x_4       R_288_17  5.             R_288_18  6.          
    x_4       R_288_19  9.             R_288_20  3.          
    x_4       R_288_21  7.             R_288_22  9.          
    x_4       R_288_23  9.             R_288_24  3.          
    x_4       R_288_25  4.             R_288_26  6.          
    x_4       R_288_27  10.            R_288_28  8.          
    x_4       R_288_29  1.             R_288_31  3.          
    x_5       OBJROW     -5.           R_288_0   1.          
    x_5       R_288_1   7.             R_288_2   7.          
    x_5       R_288_3   8.             R_288_4   9.          
    x_5       R_288_5   2.             R_288_6   4.          
    x_5       R_288_7   4.             R_288_8   7.          
    x_5       R_288_10  1.             R_288_11  9.          
    x_5       R_288_12  8.             R_288_13  2.          
    x_5       R_288_14  4.             R_288_15  10.         
    x_5       R_288_16  4.             R_288_18  9.          
    x_5       R_288_19  4.             R_288_20  10.         
    x_5       R_288_21  8.             R_288_23  10.         
    x_5       R_288_24  8.             R_288_25  10.         
    x_5       R_288_26  4.             R_288_28  6.          
    x_5       R_288_29  8.             R_288_30  2.          
    x_5       R_288_31  8.          
    x_6       OBJROW     -5.           R_288_2   9.          
    x_6       R_288_3   2.             R_288_4   6.          
    x_6       R_288_5   7.             R_288_6   3.          
    x_6       R_288_7   8.             R_288_8   8.          
    x_6       R_288_9   3.             R_288_10  9.          
    x_6       R_288_11  1.             R_288_12  9.          
    x_6       R_288_14  4.             R_288_16  3.          
    x_6       R_288_17  9.             R_288_18  5.          
    x_6       R_288_19  6.             R_288_20  5.          
    x_6       R_288_21  7.             R_288_22  2.          
    x_6       R_288_23  4.             R_288_24  9.          
    x_6       R_288_26  9.             R_288_27  5.          
    x_6       R_288_28  8.             R_288_29  9.          
    x_6       R_288_30  2.             R_288_31  7.          
    x_7       OBJROW     -10.          R_288_1   6.          
    x_7       R_288_2   8.             R_288_3   8.          
    x_7       R_288_4   5.             R_288_5   3.          
    x_7       R_288_7   4.             R_288_9   2.          
    x_7       R_288_11  6.             R_288_12  3.          
    x_7       R_288_13  4.             R_288_14  9.          
    x_7       R_288_15  7.             R_288_17  5.          
    x_7       R_288_20  6.             R_288_21  5.          
    x_7       R_288_22  2.             R_288_23  7.          
    x_7       R_288_24  5.             R_288_26  8.          
    x_7       R_288_27  3.             R_288_28  7.          
    x_7       R_288_29  1.             R_288_30  3.          
    x_7       R_288_31  7.          
    x_8       OBJROW     -4.           R_288_0   6.          
    x_8       R_288_1   10.            R_288_2   5.          
    x_8       R_288_3   3.             R_288_4   4.          
    x_8       R_288_6   3.             R_288_7   6.          
    x_8       R_288_8   7.             R_288_9   2.          
    x_8       R_288_10  4.             R_288_11  10.         
    x_8       R_288_12  6.             R_288_13  10.         
    x_8       R_288_14  3.             R_288_15  2.          
    x_8       R_288_16  5.             R_288_17  9.          
    x_8       R_288_18  2.             R_288_19  10.         
    x_8       R_288_21  1.             R_288_22  8.          
    x_8       R_288_23  6.             R_288_24  10.         
    x_8       R_288_25  10.            R_288_26  8.          
    x_8       R_288_29  7.             R_288_30  8.          
    x_8       R_288_31  2.          
    x_9       OBJROW     -10.          R_288_0   10.         
    x_9       R_288_1   9.             R_288_3   5.          
    x_9       R_288_4   1.             R_288_5   6.          
    x_9       R_288_6   1.             R_288_7   2.          
    x_9       R_288_8   8.             R_288_9   8.          
    x_9       R_288_10  8.             R_288_11  1.          
    x_9       R_288_12  9.             R_288_13  1.          
    x_9       R_288_14  1.             R_288_16  9.          
    x_9       R_288_18  8.             R_288_19  9.          
    x_9       R_288_20  2.             R_288_21  1.          
    x_9       R_288_22  7.             R_288_23  7.          
    x_9       R_288_25  9.             R_288_26  3.          
    x_9       R_288_27  3.             R_288_28  4.          
    x_9       R_288_29  4.             R_288_30  7.          
    x_9       R_288_31  3.          
    x_10      OBJROW     -1.           R_288_0   5.          
    x_10      R_288_2   8.             R_288_3   9.          
    x_10      R_288_4   5.             R_288_5   3.          
    x_10      R_288_6   2.             R_288_7   9.          
    x_10      R_288_8   4.             R_288_9   10.         
    x_10      R_288_10  3.             R_288_11  5.          
    x_10      R_288_12  8.             R_288_13  4.          
    x_10      R_288_15  1.             R_288_16  2.          
    x_10      R_288_17  9.             R_288_19  2.          
    x_10      R_288_22  5.             R_288_24  6.          
    x_10      R_288_25  5.             R_288_27  2.          
    x_10      R_288_28  7.             R_288_29  1.          
    x_10      R_288_30  2.             R_288_31  5.          
    x_11      OBJROW     -10.          R_288_1   7.          
    x_11      R_288_2   9.             R_288_3   10.         
    x_11      R_288_4   4.             R_288_5   3.          
    x_11      R_288_6   8.             R_288_9   10.         
    x_11      R_288_10  4.             R_288_11  8.          
    x_11      R_288_12  8.             R_288_14  2.          
    x_11      R_288_15  10.            R_288_16  8.          
    x_11      R_288_17  10.            R_288_18  10.         
    x_11      R_288_20  5.             R_288_22  5.          
    x_11      R_288_23  1.             R_288_24  6.          
    x_11      R_288_25  9.             R_288_26  6.          
    x_11      R_288_28  8.             R_288_30  10.         
    x_11      R_288_31  4.          
    x_12      OBJROW     -3.           R_288_0   10.         
    x_12      R_288_1   2.             R_288_2   8.          
    x_12      R_288_4   8.             R_288_5   4.          
    x_12      R_288_6   5.             R_288_9   10.         
    x_12      R_288_10  6.             R_288_11  7.          
    x_12      R_288_12  4.             R_288_13  9.          
    x_12      R_288_14  4.             R_288_15  10.         
    x_12      R_288_16  7.             R_288_17  8.          
    x_12      R_288_18  8.             R_288_20  4.          
    x_12      R_288_21  9.             R_288_22  2.          
    x_12      R_288_23  9.             R_288_24  1.          
    x_12      R_288_25  7.             R_288_26  9.          
    x_12      R_288_27  6.             R_288_28  9.          
    x_12      R_288_30  2.             R_288_31  4.          
    x_13      OBJROW     -7.           R_288_0   1.          
    x_13      R_288_1   3.             R_288_2   4.          
    x_13      R_288_3   9.             R_288_4   3.          
    x_13      R_288_5   2.             R_288_6   9.          
    x_13      R_288_7   3.             R_288_8   3.          
    x_13      R_288_9   9.             R_288_10  8.          
    x_13      R_288_11  9.             R_288_12  6.          
    x_13      R_288_13  2.             R_288_14  2.          
    x_13      R_288_15  6.             R_288_16  5.          
    x_13      R_288_19  3.             R_288_20  6.          
    x_13      R_288_21  1.             R_288_22  9.          
    x_13      R_288_23  2.             R_288_24  9.          
    x_13      R_288_25  7.             R_288_26  4.          
    x_13      R_288_27  3.             R_288_28  1.          
    x_13      R_288_29  6.             R_288_30  5.          
    x_13      R_288_31  1.          
    x_14      OBJROW     -7.           R_288_1   4.          
    x_14      R_288_2   6.             R_288_3   10.         
    x_14      R_288_5   9.             R_288_6   1.          
    x_14      R_288_7   2.             R_288_8   5.          
    x_14      R_288_9   4.             R_288_10  9.          
    x_14      R_288_13  3.             R_288_14  3.          
    x_14      R_288_15  6.             R_288_16  10.         
    x_14      R_288_17  8.             R_288_19  8.          
    x_14      R_288_20  10.            R_288_23  5.          
    x_14      R_288_24  3.             R_288_25  10.         
    x_14      R_288_26  8.             R_288_27  4.          
    x_14      R_288_28  5.             R_288_29  6.          
    x_14      R_288_30  1.          
    x_15      OBJROW     -9.           R_288_0   1.          
    x_15      R_288_1   1.             R_288_3   10.         
    x_15      R_288_4   5.             R_288_5   8.          
    x_15      R_288_6   10.            R_288_7   4.          
    x_15      R_288_8   9.             R_288_9   5.          
    x_15      R_288_11  7.             R_288_12  4.          
    x_15      R_288_13  7.             R_288_14  10.         
    x_15      R_288_15  9.             R_288_16  7.          
    x_15      R_288_17  6.             R_288_19  3.          
    x_15      R_288_20  3.             R_288_21  8.          
    x_15      R_288_22  3.             R_288_23  6.          
    x_15      R_288_24  7.             R_288_25  5.          
    x_15      R_288_26  1.             R_288_27  1.          
    x_15      R_288_28  2.             R_288_29  6.          
    x_15      R_288_30  6.             R_288_31  3.          
    x_16      OBJROW     -6.           R_288_0   6.          
    x_16      R_288_1   9.             R_288_2   7.          
    x_16      R_288_3   4.             R_288_4   2.          
    x_16      R_288_5   6.             R_288_6   8.          
    x_16      R_288_7   1.             R_288_8   7.          
    x_16      R_288_9   10.            R_288_12  10.         
    x_16      R_288_13  10.            R_288_14  6.          
    x_16      R_288_15  7.             R_288_16  8.          
    x_16      R_288_17  5.             R_288_18  4.          
    x_16      R_288_19  4.             R_288_20  6.          
    x_16      R_288_22  4.             R_288_23  10.         
    x_16      R_288_24  10.            R_288_25  7.          
    x_16      R_288_27  9.             R_288_29  8.          
    x_16      R_288_30  3.             R_288_31  10.         
    x_17      OBJROW     -9.           R_288_2   3.          
    x_17      R_288_5   10.            R_288_6   4.          
    x_17      R_288_7   5.             R_288_8   1.          
    x_17      R_288_9   2.             R_288_10  10.         
    x_17      R_288_11  7.             R_288_12  8.          
    x_17      R_288_13  8.             R_288_15  5.          
    x_17      R_288_16  8.             R_288_17  9.          
    x_17      R_288_18  5.             R_288_19  1.          
    x_17      R_288_20  9.             R_288_21  7.          
    x_17      R_288_23  5.             R_288_24  4.          
    x_17      R_288_26  8.             R_288_27  3.          
    x_17      R_288_30  5.          
    x_18      OBJROW     -8.           R_288_0   4.          
    x_18      R_288_1   4.             R_288_2   2.          
    x_18      R_288_3   6.             R_288_4   9.          
    x_18      R_288_8   3.             R_288_9   7.          
    x_18      R_288_10  4.             R_288_11  1.          
    x_18      R_288_12  6.             R_288_13  2.          
    x_18      R_288_15  3.             R_288_17  7.          
    x_18      R_288_18  8.             R_288_19  5.          
    x_18      R_288_20  3.             R_288_22  2.          
    x_18      R_288_24  3.             R_288_26  9.          
    x_18      R_288_27  4.             R_288_28  4.          
    x_19      OBJROW     -9.           R_288_0   4.          
    x_19      R_288_1   1.             R_288_3   8.          
    x_19      R_288_4   6.             R_288_6   2.          
    x_19      R_288_7   1.             R_288_8   7.          
    x_19      R_288_9   4.             R_288_10  10.         
    x_19      R_288_11  2.             R_288_12  10.         
    x_19      R_288_13  3.             R_288_14  10.         
    x_19      R_288_15  2.             R_288_16  6.          
    x_19      R_288_17  4.             R_288_18  8.          
    x_19      R_288_19  8.             R_288_20  4.          
    x_19      R_288_21  2.             R_288_22  10.         
    x_19      R_288_23  5.             R_288_24  4.          
    x_19      R_288_25  4.             R_288_26  3.          
    x_19      R_288_30  3.          
    x_20      OBJROW     -5.           R_288_0   7.          
    x_20      R_288_1   2.             R_288_2   2.          
    x_20      R_288_4   1.             R_288_5   7.          
    x_20      R_288_8   5.             R_288_10  9.          
    x_20      R_288_12  10.            R_288_13  8.          
    x_20      R_288_15  5.             R_288_17  7.          
    x_20      R_288_18  10.            R_288_19  7.          
    x_20      R_288_20  6.             R_288_21  10.         
    x_20      R_288_22  7.             R_288_24  2.          
    x_20      R_288_27  9.             R_288_28  3.          
    x_20      R_288_30  2.             R_288_31  4.          
    x_21      OBJROW     -1.           R_288_0   9.          
    x_21      R_288_2   3.             R_288_4   8.          
    x_21      R_288_5   9.             R_288_6   6.          
    x_21      R_288_7   4.             R_288_9   7.          
    x_21      R_288_10  7.             R_288_11  5.          
    x_21      R_288_12  3.             R_288_13  4.          
    x_21      R_288_16  4.             R_288_17  5.          
    x_21      R_288_18  10.            R_288_19  1.          
    x_21      R_288_20  7.             R_288_21  1.          
    x_21      R_288_22  8.             R_288_23  6.          
    x_21      R_288_25  1.             R_288_26  3.          
    x_21      R_288_27  4.             R_288_28  8.          
    x_21      R_288_29  9.             R_288_31  6.          
    x_22      OBJROW     -1.           R_288_0   4.          
    x_22      R_288_1   8.             R_288_2   5.          
    x_22      R_288_3   3.             R_288_4   1.          
    x_22      R_288_5   2.             R_288_7   1.          
    x_22      R_288_8   4.             R_288_10  9.          
    x_22      R_288_11  10.            R_288_12  6.          
    x_22      R_288_13  1.             R_288_14  1.          
    x_22      R_288_15  9.             R_288_16  1.          
    x_22      R_288_17  2.             R_288_18  10.         
    x_22      R_288_19  6.             R_288_21  3.          
    x_22      R_288_22  4.             R_288_23  3.          
    x_22      R_288_25  9.             R_288_27  2.          
    x_22      R_288_28  4.             R_288_29  4.          
    x_22      R_288_30  3.             R_288_31  1.          
    x_23      OBJROW     -6.           R_288_0   2.          
    x_23      R_288_1   4.             R_288_2   2.          
    x_23      R_288_4   3.             R_288_5   4.          
    x_23      R_288_7   3.             R_288_8   7.          
    x_23      R_288_9   2.             R_288_10  10.         
    x_23      R_288_11  6.             R_288_12  5.          
    x_23      R_288_14  5.             R_288_17  3.          
    x_23      R_288_18  6.             R_288_19  10.         
    x_23      R_288_20  10.            R_288_21  2.          
    x_23      R_288_23  10.            R_288_24  10.         
    x_23      R_288_25  2.             R_288_26  10.         
    x_23      R_288_27  1.             R_288_28  4.          
    x_23      R_288_29  9.             R_288_30  7.          
    x_24      OBJROW     -8.           R_288_0   6.          
    x_24      R_288_1   3.             R_288_2   5.          
    x_24      R_288_3   6.             R_288_5   1.          
    x_24      R_288_6   4.             R_288_7   8.          
    x_24      R_288_9   4.             R_288_10  2.          
    x_24      R_288_11  2.             R_288_12  7.          
    x_24      R_288_13  10.            R_288_14  9.          
    x_24      R_288_16  1.             R_288_17  4.          
    x_24      R_288_19  5.             R_288_20  9.          
    x_24      R_288_22  3.             R_288_23  5.          
    x_24      R_288_24  10.            R_288_25  1.          
    x_24      R_288_27  8.             R_288_28  10.         
    x_24      R_288_29  4.             R_288_31  2.          
    x_25      OBJROW     -6.           R_288_0   5.          
    x_25      R_288_1   2.             R_288_2   4.          
    x_25      R_288_3   5.             R_288_6   10.         
    x_25      R_288_7   6.             R_288_8   10.         
    x_25      R_288_10  8.             R_288_11  8.          
    x_25      R_288_12  6.             R_288_13  1.          
    x_25      R_288_14  7.             R_288_15  4.          
    x_25      R_288_17  1.             R_288_18  9.          
    x_25      R_288_20  8.             R_288_21  7.          
    x_25      R_288_23  3.             R_288_25  2.          
    x_25      R_288_26  5.             R_288_27  3.          
    x_25      R_288_28  7.             R_288_29  1.          
    x_25      R_288_30  3.             R_288_31  1.          
    x_26      OBJROW     -7.           R_288_0   4.          
    x_26      R_288_1   5.             R_288_2   3.          
    x_26      R_288_3   6.             R_288_4   7.          
    x_26      R_288_6   3.             R_288_7   5.          
    x_26      R_288_8   4.             R_288_9   1.          
    x_26      R_288_12  8.             R_288_14  8.          
    x_26      R_288_17  7.             R_288_19  9.          
    x_26      R_288_20  7.             R_288_21  8.          
    x_26      R_288_22  3.             R_288_23  5.          
    x_26      R_288_24  3.             R_288_25  2.          
    x_26      R_288_26  1.             R_288_27  1.          
    x_26      R_288_28  10.            R_288_29  7.          
    x_26      R_288_30  10.            R_288_31  3.          
    x_27      OBJROW     -7.           R_288_0   4.          
    x_27      R_288_1   6.             R_288_2   1.          
    x_27      R_288_6   6.             R_288_7   8.          
    x_27      R_288_8   3.             R_288_9   10.         
    x_27      R_288_10  2.             R_288_11  9.          
    x_27      R_288_12  2.             R_288_13  5.          
    x_27      R_288_14  5.             R_288_15  4.          
    x_27      R_288_16  1.             R_288_17  1.          
    x_27      R_288_18  10.            R_288_20  7.          
    x_27      R_288_21  8.             R_288_23  1.          
    x_27      R_288_24  1.             R_288_26  6.          
    x_27      R_288_27  2.             R_288_29  5.          
    x_27      R_288_31  2.          
    x_28      OBJROW     -9.           R_288_0   5.          
    x_28      R_288_1   3.             R_288_2   8.          
    x_28      R_288_3   9.             R_288_4   10.         
    x_28      R_288_5   10.            R_288_7   7.          
    x_28      R_288_8   2.             R_288_10  2.          
    x_28      R_288_11  8.             R_288_12  10.         
    x_28      R_288_13  7.             R_288_14  10.         
    x_28      R_288_16  8.             R_288_17  8.          
    x_28      R_288_19  7.             R_288_21  2.          
    x_28      R_288_22  5.             R_288_23  5.          
    x_28      R_288_26  5.             R_288_27  4.          
    x_28      R_288_29  9.             R_288_30  7.          
    x_28      R_288_31  1.          
    x_29      OBJROW     -3.           R_288_0   5.          
    x_29      R_288_1   1.             R_288_2   6.          
    x_29      R_288_3   10.            R_288_4   6.          
    x_29      R_288_6   1.             R_288_7   4.          
    x_29      R_288_8   2.             R_288_9   3.          
    x_29      R_288_10  7.             R_288_12  7.          
    x_29      R_288_14  4.             R_288_15  3.          
    x_29      R_288_16  8.             R_288_17  5.          
    x_29      R_288_20  4.             R_288_21  8.          
    x_29      R_288_22  4.             R_288_23  7.          
    x_29      R_288_24  9.             R_288_25  5.          
    x_29      R_288_26  10.            R_288_28  1.          
    x_29      R_288_29  3.             R_288_31  5.          
    x_30      OBJROW     -9.           R_288_1   4.          
    x_30      R_288_2   2.             R_288_3   5.          
    x_30      R_288_4   6.             R_288_5   3.          
    x_30      R_288_7   5.             R_288_8   8.          
    x_30      R_288_9   9.             R_288_10  3.          
    x_30      R_288_11  1.             R_288_13  7.          
    x_30      R_288_14  4.             R_288_15  9.          
    x_30      R_288_16  8.             R_288_17  5.          
    x_30      R_288_18  7.             R_288_19  1.          
    x_30      R_288_20  6.             R_288_21  9.          
    x_30      R_288_23  4.             R_288_24  7.          
    x_30      R_288_25  4.             R_288_27  5.          
    x_30      R_288_28  4.             R_288_29  2.          
    x_30      R_288_30  9.             R_288_31  8.          
    x_31      OBJROW     -3.           R_288_0   9.          
    x_31      R_288_1   1.             R_288_2   6.          
    x_31      R_288_3   3.             R_288_4   5.          
    x_31      R_288_6   10.            R_288_8   9.          
    x_31      R_288_9   8.             R_288_12  3.          
    x_31      R_288_14  2.             R_288_15  6.          
    x_31      R_288_16  5.             R_288_17  5.          
    x_31      R_288_18  2.             R_288_19  7.          
    x_31      R_288_20  10.            R_288_21  8.          
    x_31      R_288_22  4.             R_288_23  9.          
    x_31      R_288_24  4.             R_288_25  8.          
    x_31      R_288_26  5.             R_288_28  9.          
    x_31      R_288_29  10.            R_288_31  9.          
RHS
    RHS       R_288_0   69.            R_288_1   116.        
    RHS       R_288_2   94.            R_288_3   92.         
    RHS       R_288_4   88.            R_288_5   94.         
    RHS       R_288_6   136.           R_288_7   143.        
    RHS       R_288_8   105.           R_288_9   67.         
    RHS       R_288_10  111.           R_288_11  32.         
    RHS       R_288_12  143.           R_288_13  160.        
    RHS       R_288_14  149.           R_288_15  67.         
    RHS       R_288_16  111.           R_288_17  116.        
    RHS       R_288_18  164.           R_288_19  58.         
    RHS       R_288_20  70.            R_288_21  167.        
    RHS       R_288_22  135.           R_288_23  127.        
    RHS       R_288_24  41.            R_288_25  136.        
    RHS       R_288_26  158.           R_288_27  130.        
    RHS       R_288_28  55.            R_288_29  54.         
    RHS       R_288_30  159.           R_288_31  151.        
BOUNDS
 UI BOUND     x_0       10.         
 UI BOUND     x_1       10.         
 UI BOUND     x_2       10.         
 UI BOUND     x_3       10.         
 UI BOUND     x_4       10.         
 UI BOUND     x_5       10.         
 UI BOUND     x_6       10.         
 UI BOUND     x_7       10.         
 UI BOUND     x_8       10.         
 UI BOUND     x_9       10.         
 UI BOUND     x_10      10.         
 UI BOUND     x_11      10.         
 UI BOUND     x_12      10.         
 UI BOUND     x_13      10.         
 UI BOUND     x_14      10.         
 UI BOUND     x_15      10.         
 UI BOUND     x_16      10.         
 UI BOUND     x_17      10.         
 UI BOUND     x_18      10.         
 UI BOUND     x_19      10.         
 UI BOUND     x_20      10.         
 UI BOUND     x_21      10.         
 UI BOUND     x_22      10.         
 UI BOUND     x_23      10.         
 UI BOUND     x_24      10.         
 UI BOUND     x_25      10.         
 UI BOUND     x_26      10.         
 UI BOUND     x_27      10.         
 UI BOUND     x_28      10.         
 UI BOUND     x_29      10.         
 UI BOUND     x_30      10.         
 UI BOUND     x_31      10.         
ENDATA
